7260
744
8409
2136
8572
9761
2673
5470
7796
3369
6320
7414
6178
9659
1849
7521
1772
8946
4913
2114
4426
3580
2691
732
4813
7024
3296
2602
902
6120
6105
4317
5007
3568
9678
8976
10142
5735
6725
7159
5212
10112
9988
9542
8655
10158
2583
2484
1136
8980
577
